Maximize
  120 x_phones + 40 x_laptops
Subject To
  c1: 1 x_phones + 4 x_laptops <= 400
  c2: 0.2 x_laptops - 0.8 x_phones >= 0
  c3: 400 x_phones + 100 x_laptops <= 6000
Integer
  x_phones x_laptops
End